(set-info :smt-lib-version 2.6)
(set-logic QF_S)
(set-info :source |
Generated by: Shaoke Cui
Generated on: 2025-04-10
Application: Using String Solvers to solve string matching problems
Target solver: Z3, Z3alpha, Z3-noodler
Benchmarks for string matching problem with wildcards, which needs to determine whether two strings containing two wildcards can match.
Use re.allchar and (re.* re.allchar) to represent wildcards.
Determine whether the two strings match by judging whether the result of re.inter is re.none.
|)
(set-info :license "https://creativecommons.org/licenses/by/4.0/")
(set-info :category "crafted")
(set-info :status unknown)
(assert (= re.none (re.inter  (re.++ (str.to_re "wesbunbfqah") (re.* re.allchar) (str.to_re "xynmngfr") re.allchar (str.to_re "nbommbcriemyhwpicyvjwslyuxvk") re.allchar (str.to_re "mkvmyptsghkuzrrtgwwyizj") re.allchar (str.to_re "riydzq") re.allchar (str.to_re "czveyp") re.allchar (str.to_re "tvtcblmj") re.allchar (str.to_re "qookjckqoxiqncilyguabahmqhpyuu") re.allchar (str.to_re "hazcxulqoxix") (re.* re.allchar) (str.to_re "sauivxcjpymwlbffmnioyqljncoidjbbdrrvgpiqxlispkujpjcfyznpktpnetygiqxn") (re.* re.allchar) (str.to_re "wfmbz") (re.* re.allchar) (re.* re.allchar) (str.to_re "e") (re.* re.allchar) (str.to_re "baqrn") re.allchar re.allchar (str.to_re "kbfdompwygahinfrih") (re.* re.allchar) (str.to_re "cdinngerhlvf") re.allchar (str.to_re "cnbebiznfrvhh") (re.* re.allchar) (str.to_re "tebivefdwlywibtk") re.allchar (str.to_re "xczelfhec") (re.* re.allchar) (re.* re.allchar) (str.to_re "vfq") re.allchar (str.to_re "vdoeuww") re.allchar (str.to_re "paesqwwkb") (re.* re.allchar) (str.to_re "rnfudtvyabfoynz") (re.* re.allchar) (str.to_re "ajb") (re.* re.allchar) (str.to_re "mzfwpbfpvbzcehdvxjyuelksiezi") (re.* re.allchar) re.allchar (str.to_re "vnqfbvg") (re.* re.allchar) (str.to_re "bymzpkhjtqumgvyvidvfck") (re.* re.allchar) (str.to_re "noagteghlhbmomnbvyhhfgytosimierlctgqltexkbd") re.allchar (str.to_re "pedhcntkb") re.allchar (str.to_re "txfilcaqsowhdnn") re.allchar re.allchar (str.to_re "hlfxlnawness") (re.* re.allchar) (str.to_re "lqsoovkiqxtuzudzironrbukjefujgnlltfzghvserlezozqkopjmluimfylvpynz") re.allchar (str.to_re "uhzcnbcepogpgojluxo") (re.* re.allchar) (str.to_re "wxzfs") re.allchar (str.to_re "tysf") (re.* re.allchar) (str.to_re "ne") (re.* re.allchar) (str.to_re "bckg") re.allchar (str.to_re "byxaowk") (re.* re.allchar) (str.to_re "ptxylymwbuunwdbdjkohmhnicklndyuj") re.allchar (str.to_re "zl") (re.* re.allchar) (str.to_re "lduemrmgjefzyuokkiimgvon") (re.* re.allchar) (str.to_re "nrwufaewvqnujlrbjqvcytod") (re.* re.allchar) re.allchar (str.to_re "tdxlvamusjk") re.allchar (str.to_re "ptaejhhjjmulxcivqnumo") re.allchar (str.to_re "kpw") re.allchar (str.to_re "em") (re.* re.allchar) (str.to_re "mcdxbyfc") re.allchar (str.to_re "mqdefllzrzbnipz") re.allchar re.allchar (str.to_re "yej") re.allchar (str.to_re "egilncxfvhjzhxylimjeinhzfgxkzwlsiegv") (re.* re.allchar) (str.to_re "krkyypllnzrbo") re.allchar (str.to_re "vfjbsvdrg") (re.* re.allchar) (str.to_re "piafdc") re.allchar (str.to_re "al") (re.* re.allchar) (str.to_re "gcvebvqptwucbfzv") re.allchar (str.to_re "rquzdtxhjllgzsxgp") re.allchar (str.to_re "aekvglmryhcfbd") (re.* re.allchar) (str.to_re "tryqyqmrafaeuntxyaotrhlmw") (re.* re.allchar) (re.* re.allchar) (str.to_re "xmkerodiuawvdm") re.allchar (str.to_re "vaddyaaaliufabq") (re.* re.allchar) (str.to_re "fcuedgkf") (re.* re.allchar) (str.to_re "m") (re.* re.allchar) (str.to_re "unpknq") (re.* re.allchar) (str.to_re "wyq") re.allchar (str.to_re "zxzedowmggegcbdjiimymfjznxtvipfjmjmulexuaxzhd") (re.* re.allchar) (str.to_re "xlcogfoxlqudwibupa") re.allchar (str.to_re "bkubopnsqbuhznzuvlhqy") (re.* re.allchar) (str.to_re "zvjqxhvvq") re.allchar (str.to_re "nudalggdhaecayoay") re.allchar (str.to_re "bcfe") (re.* re.allchar) (str.to_re "jvezmdzgafxuuwovlhcwwbrktxgzgzbswukh") (re.* re.allchar) (str.to_re "rlvrcakuaff") (re.* re.allchar) (str.to_re "vkhwnhmzbqgbd") re.allchar (str.to_re "tnmh") re.allchar (str.to_re "bwcpjwvspcx") re.allchar (str.to_re "sycpkmxybxdguanojmgdwqeogxvzaztriexktuckmeqodszpz") (re.* re.allchar) (str.to_re "cwmcecsuwktpaxsszoaputyitttkvjxnq") (re.* re.allchar) (str.to_re "gb") (re.* re.allchar) (re.* re.allchar) re.allchar (str.to_re "cwzva") (re.* re.allchar) (re.* re.allchar) (str.to_re "indligltrlcovyxuemrqbwfbijocjjyibpvn") re.allchar (re.* re.allchar) (str.to_re "pkntio") (re.* re.allchar) (str.to_re "yfovg") (re.* re.allchar) (str.to_re "zpudollolumbxnymjbnjtazszpx") (re.* re.allchar) (str.to_re "wprl") (re.* re.allchar) (str.to_re "l") re.allchar (str.to_re "dspvcf") (re.* re.allchar) (str.to_re "ucgpbrxtfovyai") (re.* re.allchar) (str.to_re "wjowf") (re.* re.allchar) (str.to_re "qsjumcnxaxolu") re.allchar (str.to_re "kpxm") re.allchar (str.to_re "fumyhuceu") re.allchar (str.to_re "kmy") re.allchar (str.to_re "arxkwcgbbgqcsjsguvqmq") (re.* re.allchar) (str.to_re "lxipurvtyphfuwtsezhqgrbrvqwww") (re.* re.allchar) (str.to_re "qiqyitlyimjtzeusma") re.allchar (str.to_re "tkacbc") re.allchar (str.to_re "ug") (re.* re.allchar) (str.to_re "tayvzfxyolkxjvemou") re.allchar (str.to_re "c") (re.* re.allchar) (str.to_re "meorzxjueifwzcoihbnyhhfxcni") (re.* re.allchar) (str.to_re "y") re.allchar (str.to_re "qgwole") (re.* re.allchar) (str.to_re "jrrsztljvlbwcmkupc") re.allchar (re.* re.allchar) (str.to_re "ztxwzo") (re.* re.allchar) (str.to_re "k") re.allchar (str.to_re "wklqcov") (re.* re.allchar) (str.to_re "icfraxpba") (re.* re.allchar) (str.to_re "hydz") re.allchar (str.to_re "nyybxphps") re.allchar (str.to_re "pleuicrktqcrcgxp") (re.* re.allchar) (str.to_re "hyamhzzvyqlauojipfbgkfmzmrsxhiboko") (re.* re.allchar) (str.to_re "zdfrq") (re.* re.allchar) (str.to_re "gmlpprfxy") re.allchar (str.to_re "ckd") (re.* re.allchar) (str.to_re "ehkcm") (re.* re.allchar) (str.to_re "ehzzlejtcklwagbaynroaxhrbmxts") (re.* re.allchar) (str.to_re "xdnkfzxu") (re.* re.allchar) (str.to_re "scqhoyjsyguefbkaiyca") (re.* re.allchar) (str.to_re "vdevnpaldaqpcrkjsdzzvnqnmnlhkyvmapxmjvbmagnusmsxipjdnzaitjagjksbnhgytopjqacrab") re.allchar (str.to_re "lgpkaorfifarudfxfyi") (re.* re.allchar) (str.to_re "zayczabebpfi") re.allchar (str.to_re "tnfdeg") re.allchar (str.to_re "vg") re.allchar re.allchar (str.to_re "rijeourpjweuhhpqtyptywt") (re.* re.allchar) (str.to_re "yjln") re.allchar (str.to_re "nhn") re.allchar (str.to_re "xxqbphvoltxpcdsmvuzspddmxbjtjh") (re.* re.allchar) (str.to_re "enhghjphcbkckvsme") (re.* re.allchar) (str.to_re "sfq") (re.* re.allchar) (str.to_re "lq") (re.* re.allchar) (str.to_re "shhgnuyrq") (re.* re.allchar) (str.to_re "bt") re.allchar (str.to_re "bhcjlnhfhpyl") re.allchar (str.to_re "hzkwcljvnkkikgplr") (re.* re.allchar) (str.to_re "uzsqpbkjftsydca") (re.* re.allchar) (str.to_re "zydocstt") (re.* re.allchar) (str.to_re "ncfvvoikvplmnqzskqgnaszwtlhrtufqyeydhnpjyqhqzh") re.allchar (str.to_re "plr") (re.* re.allchar) (str.to_re "pcbpq") re.allchar (str.to_re "ofriwxrp") re.allchar (str.to_re "hzhgsgdfv") (re.* re.allchar) (str.to_re "nojbrhj") (re.* re.allchar) (str.to_re "o") re.allchar (str.to_re "bzbqqvyzbhzofebpqwyrrcbfzmewmzzryzbfsaoxls") (re.* re.allchar) (str.to_re "vni") (re.* re.allchar) (str.to_re "m") (re.* re.allchar) (str.to_re "cjrsrbqsphiuxb") (re.* re.allchar) (re.* re.allchar) (str.to_re "fqhypsdphmuikd") (re.* re.allchar) (str.to_re "pkchdlbdhuo") (re.* re.allchar) (str.to_re "tbvql") (re.* re.allchar) (str.to_re "npiezafplnjqvfig") re.allchar (str.to_re "hwendwrirgv") (re.* re.allchar) (str.to_re "wrjpnnfsmcakcnms") re.allchar (str.to_re "hwlxfjulebmeopyjyk") re.allchar (str.to_re "rejykkpsqmocohdcilcvsgvapxdrz") (re.* re.allchar) (str.to_re "wpd") (re.* re.allchar) (str.to_re "bh") (re.* re.allchar) (str.to_re "jcftrrhugno") re.allchar (str.to_re "webnxlqfgrwvaeywyt") re.allchar (str.to_re "omqcneelvyfoywc") (re.* re.allchar) (str.to_re "cdwcvekpnigoymgpibpgpknjgzdwgwq") (re.* re.allchar) (re.* re.allchar) (str.to_re "feketryikejhpadcoqkmo") re.allchar (str.to_re "tc") (re.* re.allchar) (str.to_re "g") re.allchar (str.to_re "cyrgbhljvtgczqaiee") (re.* re.allchar) (str.to_re "bbfhkidarniu") re.allchar (str.to_re "dbjkfjnwy") (re.* re.allchar) (str.to_re "fegdiomnpygjgeh") (re.* re.allchar) (str.to_re "ikmz") re.allchar (str.to_re "klvmqduldxdwupqshiaorycjyrzghn") (re.* re.allchar) (str.to_re "j") re.allchar (str.to_re "tiow") (re.* re.allchar) re.allchar (str.to_re "okvwhzzes") (re.* re.allchar) (str.to_re "obrfc") re.allchar (str.to_re "xtb") re.allchar (str.to_re "fncbwisiyaggr") re.allchar (str.to_re "fqlbarprj") re.allchar (str.to_re "sifcmvrwffyz") (re.* re.allchar) (str.to_re "ejoqjubkel") re.allchar (str.to_re "stpifhwdwmh") (re.* re.allchar) (str.to_re "hoqekgttsefaalolierdbksdxiusfiqwnyxuyacfrlczucwunngt") re.allchar (str.to_re "zyoqvuwuboemjui") re.allchar (str.to_re "qcyassj") re.allchar (str.to_re "y") re.allchar (str.to_re "cxqzvtnhaiecxixmuiolimiagbmxednre") (re.* re.allchar) (re.* re.allchar) (str.to_re "nag") (re.* re.allchar) (str.to_re "elxvzgwkmnnvi") (re.* re.allchar) (str.to_re "gywxptshcqx") (re.* re.allchar) (str.to_re "spq") re.allchar (str.to_re "rcwx") re.allchar re.allchar (str.to_re "bqdov") (re.* re.allchar) (str.to_re "hcowvsgntfbibncxudyzx") re.allchar (str.to_re "willqvnkhpzacsrzowr") re.allchar (re.* re.allchar) (re.* re.allchar) (str.to_re "vsztuxopctiek") re.allchar (str.to_re "bp") re.allchar (str.to_re "hxfdyingl") re.allchar (str.to_re "ewkoeaxkaascv") (re.* re.allchar) (str.to_re "jwxsroivigigzoyxlpbf") (re.* re.allchar) (str.to_re "ifnkwfvbqixy") re.allchar (str.to_re "mhxipvqeabqiu") (re.* re.allchar) (str.to_re "ztctkqfawuefxmmcbuv") re.allchar (str.to_re "inxtj") (re.* re.allchar) (str.to_re "rprrlsvolougpcbzkgyeorwgkepbdl") re.allchar (re.* re.allchar) (str.to_re "z") re.allchar (str.to_re "wiefbcyghcpk") re.allchar (str.to_re "xzcloooehihaomud") re.allchar (str.to_re "ufwjta") (re.* re.allchar) (str.to_re "jg") (re.* re.allchar) (str.to_re "vynstoyfvwkx") (re.* re.allchar) (str.to_re "jm") (re.* re.allchar) re.allchar (str.to_re "wwrmkjimugqyyhdjnoc") (re.* re.allchar) (str.to_re "pmucdxgqgeofmbiuaswegeavanzshemxlgmr") (re.* re.allchar) (str.to_re "gpcbryvzmsrsiqfkzrqqwhmp") (re.* re.allchar) (str.to_re "dnbavv") re.allchar (str.to_re "bih") (re.* re.allchar) (re.* re.allchar) (str.to_re "bjspzuqgitw") (re.* re.allchar) (str.to_re "t") (re.* re.allchar) (str.to_re "hso") re.allchar (str.to_re "exoc") (re.* re.allchar) (re.* re.allchar) (str.to_re "otkabqjuqybmeklmqjdvscmsimjofxjfwlblchxgbkulnnvzgxdmytbyukutkatlcjynppuie") (re.* re.allchar) (str.to_re "xozdqszxtgmhhiiqwv") (re.* re.allchar) (str.to_re "zwelwejooppivtpswnfilqmgmemineqhglqcjvumwje") re.allchar (str.to_re "pbot") re.allchar (str.to_re "n") re.allchar (str.to_re "czxsaealelgzdsdlrqme") re.allchar (str.to_re "gvnyuuxudyhplvcfrywlqvemammadifquhxtdhgnnzc") (re.* re.allchar) (str.to_re "fwbcoudlwz") re.allchar (str.to_re "dpuggaszjnkgwq") re.allchar (str.to_re "zdx") (re.* re.allchar) (str.to_re "o") (re.* re.allchar) (str.to_re "rtnweqqougwmypszqwtxfpefjlawux") re.allchar (str.to_re "ihcx") (re.* re.allchar) (str.to_re "dlmmiaypcpbthvcqagncajx") re.allchar (str.to_re "hrcqdb") re.allchar (str.to_re "sggumw") re.allchar (str.to_re "yv") re.allchar (str.to_re "jncgbmjebscrtahhsuceno") re.allchar (str.to_re "fvpslyhlcnllnlmhz") re.allchar (str.to_re "rila") (re.* re.allchar) (str.to_re "syclqhmhcurnb") (re.* re.allchar) (str.to_re "adiwdtiybnburukgdcernkgltmfpvawmtxvor") re.allchar (str.to_re "odadlfzrkfi") re.allchar (str.to_re "pic") (re.* re.allchar) (str.to_re "jxwpciomxwdaevystxemhahckvhlrubbhlfibhojcxrskhnrmuclsbryfvcci") (re.* re.allchar) (str.to_re "glknaudpb") (re.* re.allchar) (str.to_re "imehhffcufoqxcocn") (re.* re.allchar) (str.to_re "brixv") re.allchar (re.* re.allchar) (str.to_re "donahqkz") (re.* re.allchar) (str.to_re "zxbfvftxlffcqnlnguufmvzzxskvica") re.allchar (str.to_re "tbdootsnitkh") (re.* re.allchar) (str.to_re "brguxezvlpukxwvw") re.allchar (re.* re.allchar) (str.to_re "nnuqddtybostzunic") re.allchar (str.to_re "otsczxvkkblryaempqyoogv") re.allchar (str.to_re "bez") re.allchar (str.to_re "kwnplcyplcxxmn") re.allchar (str.to_re "olcwpdc") (re.* re.allchar) (str.to_re "dxzghjty") (re.* re.allchar) (str.to_re "bpsbvbpm") re.allchar (str.to_re "eycdcvjctlkoyuvefzgffgcqugnzmxkhudkvyrpobho") (re.* re.allchar) (str.to_re "znb") (re.* re.allchar) (str.to_re "trwaynpaeooetinpawxcgvqdfcchhfukzjspaz") (re.* re.allchar) (str.to_re "mlhslu") re.allchar (re.* re.allchar) (str.to_re "mrpvmnoqdawing") re.allchar (str.to_re "yfeoooffddijmnupayc") (re.* re.allchar) (str.to_re "urzb") (re.* re.allchar) (str.to_re "wlsi") re.allchar (str.to_re "vsnphtfd") (re.* re.allchar) (str.to_re "w") (re.* re.allchar) (re.* re.allchar) (re.* re.allchar) (re.* re.allchar) (str.to_re "zrlqwcbjltbgeyzpqbu") re.allchar (str.to_re "rfsv") re.allchar (str.to_re "fyitazgbm") (re.* re.allchar) (str.to_re "gwvvjultafjz") (re.* re.allchar) re.allchar (re.* re.allchar) (str.to_re "vkszph") re.allchar (str.to_re "hhalzokr") (re.* re.allchar) re.allchar (str.to_re "xtmshrleanpqjnwcrgkztb") (re.* re.allchar) (str.to_re "ufutsbqpoaaksknuaxtplgjsdlkorhfupqdwkwdoeeiepa") )   (re.++ (str.to_re "jktwt") re.allchar re.allchar (str.to_re "yrfdmg") re.allchar (str.to_re "xgkpdjcdxoteeqrfpadrfxkmcuzjhi") (re.* re.allchar) (str.to_re "boxasohznbww") (re.* re.allchar) (str.to_re "mhilrbxowh") re.allchar (str.to_re "qckhrgjjaibyyyzh") re.allchar (str.to_re "sqxhi") (re.* re.allchar) (str.to_re "xpm") re.allchar re.allchar (str.to_re "wqavu") (re.* re.allchar) (str.to_re "l") re.allchar (str.to_re "svzuawphrbzdftdnbzmvmynmmtg") re.allchar (str.to_re "wvvbswbbonwohuvxgkyihaubaccvil") (re.* re.allchar) (str.to_re "dqsgoueayjzakvzzvolvuuybsbitswrqzttckdrqe") re.allchar (str.to_re "dtaqwgwdhsydqqgparggbzpdjxxxcgpciyaqhetudhai") re.allchar (str.to_re "mblahqwdyeftgggmnpb") re.allchar (str.to_re "mxejqpzdzl") (re.* re.allchar) (str.to_re "ns") (re.* re.allchar) re.allchar (str.to_re "yeyrihuj") (re.* re.allchar) (str.to_re "zyremsscohfkgogpilfjmvizljr") (re.* re.allchar) (str.to_re "lvkbzgaqwgsiygxnovbmx") re.allchar (str.to_re "tihg") re.allchar (str.to_re "grqmnxphdwwvoljksrrur") re.allchar (str.to_re "kkfuyxldmw") (re.* re.allchar) (str.to_re "tuzfw") re.allchar (str.to_re "ftwswbrdbybdp") (re.* re.allchar) (str.to_re "rcagq") re.allchar (str.to_re "ldlpkqdipvokyonfdejt") re.allchar (str.to_re "bjmtcaxbkremwm") re.allchar (str.to_re "fccsx") (re.* re.allchar) (str.to_re "mrd") re.allchar (str.to_re "cqrnpcfyr") (re.* re.allchar) (str.to_re "lwac") re.allchar (str.to_re "rcrtrmp") (re.* re.allchar) (str.to_re "mkshpwveuxcnykvrb") (re.* re.allchar) (str.to_re "crbeq") re.allchar (re.* re.allchar) (str.to_re "kvzyqhehodjudkuhciiabkjv") (re.* re.allchar) (str.to_re "ucutnishfa") (re.* re.allchar) (str.to_re "ebwvu") (re.* re.allchar) (str.to_re "hqvsgfpjpripfxbwkpysqp") re.allchar (str.to_re "tbwivyffpygfwzrtbbv") re.allchar (str.to_re "gxezxsq") (re.* re.allchar) (str.to_re "anbflnvmyqwifolcqjrjdrkyti") re.allchar (str.to_re "mnqn") re.allchar (str.to_re "vgiifevgadripjotpu") re.allchar (str.to_re "niz") re.allchar (str.to_re "grdruyuchfvefhbpzcdn") re.allchar (str.to_re "clkcnuoyljfwuryjgcwzannxjwzmnglgyhytfsv") re.allchar (re.* re.allchar) (str.to_re "er") (re.* re.allchar) (str.to_re "tl") (re.* re.allchar) (str.to_re "hahvjkhghzqiasymbcqrhaez") (re.* re.allchar) (str.to_re "egqesprbtqjuujqwxj") (re.* re.allchar) (str.to_re "rnhkbymcx") re.allchar (str.to_re "eqw") (re.* re.allchar) (re.* re.allchar) (str.to_re "raqw") re.allchar (str.to_re "lvgjrdfoiexep") re.allchar (str.to_re "u") (re.* re.allchar) (str.to_re "koxqwrjorjsdxfiixnwzpckcellstibljxhyzpl") re.allchar (str.to_re "iertuicw") (re.* re.allchar) (str.to_re "lcjghddbnpbrcyovhakoza") (re.* re.allchar) (str.to_re "iqdozfup") (re.* re.allchar) (str.to_re "bv") re.allchar (str.to_re "htswypsa") (re.* re.allchar) re.allchar (str.to_re "lz") re.allchar (str.to_re "jbgnziwewbruxzddcwqxdbxftcim") (re.* re.allchar) (str.to_re "wzjlymuuxekl") (re.* re.allchar) (str.to_re "u") (re.* re.allchar) (str.to_re "qx") re.allchar (str.to_re "ri") (re.* re.allchar) re.allchar (str.to_re "huoipvvlpfckwcrkejgcf") re.allchar (str.to_re "yvc") re.allchar (str.to_re "shggnvymlhuiskpquaz") (re.* re.allchar) (str.to_re "yymfgo") re.allchar (str.to_re "zctldtfsmbxmflzcjixjrnrsoohmxffnqrrz") re.allchar (str.to_re "fntbtwmmzpjwyinfwzzionrotdhxsm") re.allchar (str.to_re "iqqllurhcrekfihcyjthshtgjljvpwds") re.allchar (str.to_re "floallzyfktcvj") re.allchar (str.to_re "cpjgdyqog") (re.* re.allchar) (str.to_re "qz") (re.* re.allchar) (str.to_re "jd") (re.* re.allchar) (str.to_re "nig") re.allchar (str.to_re "hpkeu") re.allchar (str.to_re "khgkkwixrihqiz") re.allchar (str.to_re "opngugvrube") re.allchar (str.to_re "jm") (re.* re.allchar) (str.to_re "yqvvkwajkugfdlrc") (re.* re.allchar) (str.to_re "lcksowe") re.allchar (str.to_re "pfisxe") (re.* re.allchar) re.allchar (re.* re.allchar) (str.to_re "i") (re.* re.allchar) (str.to_re "daonisoyiljuxdmazlqgjen") (re.* re.allchar) (str.to_re "swusasiph") (re.* re.allchar) (str.to_re "zaqaiflnbmjyvjeoibep") re.allchar (str.to_re "waxycu") re.allchar (str.to_re "jzcbydzdajwbboafgpozxumpwdwdqdj") re.allchar (str.to_re "ehpswfapbnbwtkhifqyuboxnziyslhvcjsosmobloalkviuu") (re.* re.allchar) (str.to_re "b") re.allchar (str.to_re "rkqlvdcixazzysuffojn") re.allchar (str.to_re "peqhfdiaqapwhtgletwewbqn") re.allchar (str.to_re "wtnmuper") re.allchar (str.to_re "uzshialmlvxdflfxqjuv") (re.* re.allchar) (str.to_re "idhqecsbafxycbduyzutfnlqrgmbkteexktihajtw") (re.* re.allchar) (re.* re.allchar) (str.to_re "plpodbkogvpkstszwupersokdihviw") (re.* re.allchar) (str.to_re "leyx") re.allchar (str.to_re "m") re.allchar (str.to_re "sudaacnsckdblbutshdcocqbtbuctgltdghyiwxvniztyoripquatkgabrwagdmhgzkwttdgwcfcompxbvwumdo") (re.* re.allchar) (str.to_re "cmaleedanfrpfpobbomquhkrbwgxpfjehbfnnbtigvxcdghyx") re.allchar (str.to_re "chgml") re.allchar (str.to_re "jqceati") re.allchar (str.to_re "pbxbtiud") re.allchar (str.to_re "cuphw") re.allchar (str.to_re "ghelgx") re.allchar (str.to_re "vfkjdjwqsazhdoay") (re.* re.allchar) (str.to_re "j") re.allchar (str.to_re "wbextnujjkabighdbhqcxfkgqisfqw") re.allchar (str.to_re "eqfhpgrjhxbunyulprwuwtaxjpspt") re.allchar (str.to_re "jo") re.allchar (str.to_re "l") re.allchar (str.to_re "rajmxtzzulqqmmqqqwaomofywwxzgehvjgugqcoianupdwfuu") (re.* re.allchar) (str.to_re "omqyzbfdrigyfptvjhr") (re.* re.allchar) (str.to_re "uvbnwnygcp") (re.* re.allchar) (str.to_re "gjixaxbtmqeafa") (re.* re.allchar) (str.to_re "fvsffnkx") re.allchar (str.to_re "yncotlkkvesffbi") re.allchar (str.to_re "pihthfaymoykhupqqr") re.allchar (str.to_re "kpuhwfkm") (re.* re.allchar) (str.to_re "dg") re.allchar (str.to_re "bwnvscyzpzffqfmuxwfdomwjflum") re.allchar (re.* re.allchar) (str.to_re "ve") re.allchar (str.to_re "vunorbqlkhxerkzahkvyqdunzpqpehdeicffvwuhdbhjlzyrpqvughvvwvfkyucwnafhfnsqqxsmlpxjagdcoayosbag") (re.* re.allchar) (str.to_re "hitaweygacbrrgzfhyqvvses") (re.* re.allchar) (str.to_re "mchtefz") (re.* re.allchar) (str.to_re "it") (re.* re.allchar) (str.to_re "cd") (re.* re.allchar) (str.to_re "idpxqjipc") (re.* re.allchar) (str.to_re "ufny") re.allchar (str.to_re "zidxsdvtoqjdisoovz") re.allchar (str.to_re "hewcmvbs") (re.* re.allchar) (re.* re.allchar) (str.to_re "tmcqshlobvjfkpg") re.allchar (str.to_re "qqypllw") re.allchar (str.to_re "scbr") re.allchar (str.to_re "ljsuwghuwymohjigbmsectupbbwott") )  )))
(check-sat)
(exit)
